acell 3*6.38639 angstrom

rprim
 0.000000000000  0.000000000000 -0.820086328687
 0.000000000000 -0.910898455145  0.000000000000
-1.000000000000  0.000000000000  0.000000000000

natom 8

ntypat 2

typat 1 1 1 1 2 2 2 2 

znucl 9 81 

xred
 0.750000000000 0.423591170000 0.142622530000
 0.250000000000 0.576408830000 0.857377470000
 0.750000000000 0.923591170000 0.857377470000
 0.250000000000 0.076408830000 0.142622530000
 0.750000000000 0.497827430000 0.757766780000
 0.250000000000 0.502172570000 0.242233220000
 0.750000000000 0.997827430000 0.242233220000
 0.250000000000 0.002172570000 0.757766780000

ecut XXECUTXX

pawecutdg XXPAWECUTDGXX

nband XXNBNDXX

tolvrs 1.0d-12

nstep 100

istwfk *1

nsppol 1

occopt 6

ngkpt 11 10  9

shiftk 0.0 0.0 0.0
