Tl4 F4
1.0
0.000000000000 0.000000000000 -5.237390530000
0.000000000000 -5.817352120000 0.000000000000
-6.386389270000 0.000000000000 0.000000000000
F Tl
4 4
direct
0.750000000000 0.423591170000 0.142622530000 F
0.250000000000 0.576408830000 0.857377470000 F
0.750000000000 0.923591170000 0.857377470000 F
0.250000000000 0.076408830000 0.142622530000 F
0.750000000000 0.497827430000 0.757766780000 Tl
0.250000000000 0.502172570000 0.242233220000 Tl
0.750000000000 0.997827430000 0.242233220000 Tl
0.250000000000 0.002172570000 0.757766780000 Tl
